(set-info :smt-lib-version 2.6)
(set-logic QF_BVFPLRA)
(set-info :source |
Generated by the tool Ultimate Automizer [1,2] which implements
an automata theoretic approach [3] to software verification.

This SMT script belongs to a set of SMT scripts that was generated by
applying Ultimate Automizer to benchmarks [4] from the SV-COMP 2023 [5,6].
This script may not contain all SMT commands that Ultimate Automizer
issued. In order to meet the restrictions for SMT-COMP benchmarks 
we dropped the commands for getting values (resp. models), 
unsatisfiable cores, and interpolants.

2023-03-21, Matthias Heizmann (heizmann@informatik.uni-freiburg.de)

[1] https://ultimate.informatik.uni-freiburg.de/automizer/
[2] Matthias Heizmann, Max Barth, Daniel Dietsch, Leonard Fichtner,
     Jochen Hoenicke, Dominik Klumpp, Mehdi Naouar, Tanja Schindler,
     Frank Schüssele, Andreas Podelski: Ultimate Automizer and the
     CommuHash Normal Form (Competition Contribution). TACAS 2023
[3] Matthias Heizmann, Jochen Hoenicke, Andreas Podelski: Software Model
     Checking for People Who Love Automata. CAV 2013
[4] https://github.com/sosy-lab/sv-benchmarks
[5] Dirk Beyer: Competition on Software Verification and
     Witness Validation: SV-COMP 2023.  TACAS 2023
[6] https://sv-comp.sosy-lab.org/2023/
|)
(set-info :license "https://creativecommons.org/licenses/by/4.0/")
(set-info :category "industrial")
(set-info :status unknown)
(declare-fun v_currentRoundingMode_9_const_205912918 () RoundingMode)
(declare-fun |v_ULTIMATE.start___ieee754_acos_~z~1#1_2_const_303173534| () (_ FloatingPoint 11 53))
(declare-fun v_~pS5_acos~0_2_const_269065088 () (_ FloatingPoint 11 53))
(declare-fun v_~pS4_acos~0_2_const_484387427 () (_ FloatingPoint 11 53))
(declare-fun v_~pS3_acos~0_2_const_-392775358 () (_ FloatingPoint 11 53))
(declare-fun v_~pS2_acos~0_2_const_-143800259 () (_ FloatingPoint 11 53))
(declare-fun v_~pS1_acos~0_2_const_-1021092068 () (_ FloatingPoint 11 53))
(declare-fun v_~pS0_acos~0_2_const_-805638657 () (_ FloatingPoint 11 53))
(declare-fun |v_ULTIMATE.start___ieee754_acos_~p~0#1_2_const_1025939333| () (_ FloatingPoint 11 53))
(declare-fun v_~qS4_acos~0_2_const_-460240960 () (_ FloatingPoint 11 53))
(declare-fun v_~qS3_acos~0_2_const_-211233117 () (_ FloatingPoint 11 53))
(declare-fun v_~qS2_acos~0_2_const_-12687998 () (_ FloatingPoint 11 53))
(declare-fun v_~qS1_acos~0_2_const_-873073539 () (_ FloatingPoint 11 53))
(declare-fun v_~one_acos~0_2_const_-1906635180 () (_ FloatingPoint 11 53))
(declare-fun |v_ULTIMATE.start___ieee754_acos_~q~1#1_2_const_-163945913| () (_ FloatingPoint 11 53))
(declare-fun |v_ULTIMATE.start___ieee754_acos_~hx~2#1_4_const_575800714| () (_ BitVec 32))
(declare-fun |v_ULTIMATE.start___ieee754_acos_~x#1_4_const_-36084115| () (_ FloatingPoint 11 53))
(assert (and (= |v_ULTIMATE.start___ieee754_acos_~q~1#1_2_const_-163945913| (fp.add v_currentRoundingMode_9_const_205912918 v_~one_acos~0_2_const_-1906635180 (fp.mul v_currentRoundingMode_9_const_205912918 |v_ULTIMATE.start___ieee754_acos_~z~1#1_2_const_303173534| (fp.add v_currentRoundingMode_9_const_205912918 v_~qS1_acos~0_2_const_-873073539 (fp.mul v_currentRoundingMode_9_const_205912918 |v_ULTIMATE.start___ieee754_acos_~z~1#1_2_const_303173534| (fp.add v_currentRoundingMode_9_const_205912918 v_~qS2_acos~0_2_const_-12687998 (fp.mul v_currentRoundingMode_9_const_205912918 |v_ULTIMATE.start___ieee754_acos_~z~1#1_2_const_303173534| (fp.add v_currentRoundingMode_9_const_205912918 v_~qS3_acos~0_2_const_-211233117 (fp.mul v_currentRoundingMode_9_const_205912918 |v_ULTIMATE.start___ieee754_acos_~z~1#1_2_const_303173534| v_~qS4_acos~0_2_const_-460240960))))))))) (bvslt |v_ULTIMATE.start___ieee754_acos_~hx~2#1_4_const_575800714| (_ bv0 32)) (= (fp.mul v_currentRoundingMode_9_const_205912918 |v_ULTIMATE.start___ieee754_acos_~z~1#1_2_const_303173534| (fp.add v_currentRoundingMode_9_const_205912918 v_~pS0_acos~0_2_const_-805638657 (fp.mul v_currentRoundingMode_9_const_205912918 |v_ULTIMATE.start___ieee754_acos_~z~1#1_2_const_303173534| (fp.add v_currentRoundingMode_9_const_205912918 v_~pS1_acos~0_2_const_-1021092068 (fp.mul v_currentRoundingMode_9_const_205912918 |v_ULTIMATE.start___ieee754_acos_~z~1#1_2_const_303173534| (fp.add v_currentRoundingMode_9_const_205912918 v_~pS2_acos~0_2_const_-143800259 (fp.mul v_currentRoundingMode_9_const_205912918 |v_ULTIMATE.start___ieee754_acos_~z~1#1_2_const_303173534| (fp.add v_currentRoundingMode_9_const_205912918 v_~pS3_acos~0_2_const_-392775358 (fp.mul v_currentRoundingMode_9_const_205912918 |v_ULTIMATE.start___ieee754_acos_~z~1#1_2_const_303173534| (fp.add v_currentRoundingMode_9_const_205912918 v_~pS4_acos~0_2_const_484387427 (fp.mul v_currentRoundingMode_9_const_205912918 |v_ULTIMATE.start___ieee754_acos_~z~1#1_2_const_303173534| v_~pS5_acos~0_2_const_269065088))))))))))) |v_ULTIMATE.start___ieee754_acos_~p~0#1_2_const_1025939333|) (= (fp.mul v_currentRoundingMode_9_const_205912918 (fp.add v_currentRoundingMode_9_const_205912918 v_~one_acos~0_2_const_-1906635180 |v_ULTIMATE.start___ieee754_acos_~x#1_4_const_-36084115|) ((_ to_fp 11 53) v_currentRoundingMode_9_const_205912918 (/ 1.0 2.0))) |v_ULTIMATE.start___ieee754_acos_~z~1#1_2_const_303173534|)))
(check-sat)
(exit)
